; benchmark generated from python API
(set-info :status unknown)
(declare-fun x_days () (_ BitVec 32))
(declare-fun y_days () (_ BitVec 32))
(assert
 (bvsle (_ bv4294930771 32) x_days))
(assert
 (bvsge (_ bv36523 32) x_days))
(assert
 (bvsle (_ bv4294930771 32) y_days))
(assert
 (bvsge (_ bv36523 32) y_days))
(assert
 (= x_days (_ bv7304 32)))
(assert
 (let ((?x4859 (bvadd x_days (_ bv730179 32))))
 (let ((?x5779 (bvsmod ?x4859 (_ bv146097 32))))
 (let ((?x5303 (bvsdiv ?x5779 (_ bv36524 32))))
 (let ((?x43001 (ite (bvsle (_ bv4 32) ?x5303) (_ bv3 32) ?x5303)))
 (let ((?x1016 (bvsub ?x5779 (bvmul ?x43001 (_ bv36524 32)))))
 (let ((?x3295 (bvsmod ?x1016 (_ bv1461 32))))
 (let ((?x1779 (bvsdiv ?x3295 (_ bv365 32))))
 (let ((?x1819 (ite (bvsle (_ bv4 32) ?x1779) (_ bv3 32) ?x1779)))
 (let ((?x4542 (bvadd (bvadd (bvmul (bvsdiv ?x4859 (_ bv146097 32)) (_ bv400 32)) (bvmul ?x43001 (_ bv100 32))) (bvmul (bvsdiv ?x1016 (_ bv1461 32)) (_ bv4 32)))))
 (let ((?x2979 (bvadd (bvadd ?x4542 ?x1819) (_ bv1 32))))
 (let (($x3345 (or (and (= (bvsmod ?x2979 (_ bv4 32)) (_ bv0 32)) (and (distinct (bvsmod ?x2979 (_ bv100 32)) (_ bv0 32)) true)) (= (bvsmod ?x2979 (_ bv400 32)) (_ bv0 32)))))
 (let ((?x38082 (bvsub ?x3295 (bvmul ?x1819 (_ bv365 32)))))
 (let ((?x5247 (ite $x3345 (_ bv31 32) (_ bv31 32))))
 (let (($x51043 (bvsge ?x38082 ?x5247)))
 (let ((?x3297 (ite $x51043 (bvadd (bvsub ?x38082 ?x5247) (_ bv1 32)) (bvadd (bvsub ?x38082 (ite $x3345 (_ bv0 32) (_ bv0 32))) (_ bv1 32)))))
 (let ((?x3021 (ite $x3345 (_ bv60 32) (_ bv59 32))))
 (let (($x38905 (bvsge ?x38082 ?x3021)))
 (let ((?x3154 (ite $x3345 (_ bv91 32) (_ bv90 32))))
 (let (($x27322 (bvsge ?x38082 ?x3154)))
 (let ((?x1636 (ite $x27322 (bvadd (bvsub ?x38082 ?x3154) (_ bv1 32)) (ite $x38905 (bvadd (bvsub ?x38082 ?x3021) (_ bv1 32)) ?x3297))))
 (let ((?x3136 (ite $x3345 (_ bv121 32) (_ bv120 32))))
 (let (($x4378 (bvsge ?x38082 ?x3136)))
 (let ((?x3698 (ite $x3345 (_ bv152 32) (_ bv151 32))))
 (let (($x2885 (bvsge ?x38082 ?x3698)))
 (let ((?x3519 (ite $x2885 (bvadd (bvsub ?x38082 ?x3698) (_ bv1 32)) (ite $x4378 (bvadd (bvsub ?x38082 ?x3136) (_ bv1 32)) ?x1636))))
 (let ((?x4157 (ite $x3345 (_ bv182 32) (_ bv181 32))))
 (let (($x2441 (bvsge ?x38082 ?x4157)))
 (let ((?x5872 (ite $x3345 (_ bv213 32) (_ bv212 32))))
 (let (($x2767 (bvsge ?x38082 ?x5872)))
 (let ((?x9818 (ite $x2767 (bvadd (bvsub ?x38082 ?x5872) (_ bv1 32)) (ite $x2441 (bvadd (bvsub ?x38082 ?x4157) (_ bv1 32)) ?x3519))))
 (let ((?x4731 (ite $x3345 (_ bv244 32) (_ bv243 32))))
 (let (($x3763 (bvsge ?x38082 ?x4731)))
 (let ((?x2100 (ite $x3345 (_ bv274 32) (_ bv273 32))))
 (let (($x13990 (bvsge ?x38082 ?x2100)))
 (let ((?x2269 (ite $x13990 (bvadd (bvsub ?x38082 ?x2100) (_ bv1 32)) (ite $x3763 (bvadd (bvsub ?x38082 ?x4731) (_ bv1 32)) ?x9818))))
 (let ((?x3233 (ite $x3345 (_ bv305 32) (_ bv304 32))))
 (let (($x34890 (bvsge ?x38082 ?x3233)))
 (let ((?x5802 (ite $x3345 (_ bv335 32) (_ bv334 32))))
 (let (($x42247 (bvsge ?x38082 ?x5802)))
 (let ((?x3854 (ite $x42247 (bvadd (bvsub ?x38082 ?x5802) (_ bv1 32)) (ite $x34890 (bvadd (bvsub ?x38082 ?x3233) (_ bv1 32)) ?x2269))))
 (let ((?x4776 (ite $x2885 (_ bv6 32) (ite $x4378 (_ bv5 32) (ite $x27322 (_ bv4 32) (ite $x38905 (_ bv3 32) (ite $x51043 (_ bv2 32) (_ bv1 32))))))))
 (let ((?x4838 (ite $x34890 (_ bv11 32) (ite $x13990 (_ bv10 32) (ite $x3763 (_ bv9 32) (ite $x2767 (_ bv8 32) (ite $x2441 (_ bv7 32) ?x4776)))))))
 (let ((?x4917 (bvadd (ite $x42247 (_ bv12 32) ?x4838) (bvadd (bvmul (_ bv1 32) (_ bv12 32)) (_ bv0 32)))))
 (let ((?x4815 (bvsub (ite (bvuge ?x4917 (_ bv2147483648 32)) (bvsub ?x4917 (_ bv0 32)) ?x4917) (_ bv1 32))))
 (let ((?x5019 (bvsmod ?x4815 (_ bv12 32))))
 (let ((?x5229 (bvadd ?x5019 (_ bv1 32))))
 (let ((?x44397 (ite (or (= ?x5229 (_ bv4 32)) (= ?x5229 (_ bv6 32)) (= ?x5229 (_ bv9 32)) (= ?x5229 (_ bv11 32))) (_ bv30 32) (_ bv31 32))))
 (let ((?x5067 (bvsdiv ?x4815 (_ bv12 32))))
 (let ((?x39053 (ite (and (bvuge ?x4815 (_ bv2147483648 32)) (and (distinct (_ bv0 32) ?x5019) true)) (bvsub ?x5067 (_ bv1 32)) ?x5067)))
 (let ((?x5240 (bvadd ?x2979 (bvadd (_ bv0 32) ?x39053))))
 (let (($x73229 (or (and (= (bvsmod ?x5240 (_ bv4 32)) (_ bv0 32)) (and (distinct (bvsmod ?x5240 (_ bv100 32)) (_ bv0 32)) true)) (= (bvsmod ?x5240 (_ bv400 32)) (_ bv0 32)))))
 (let ((?x3431 (ite (= ?x5229 (_ bv2 32)) (ite $x73229 (_ bv29 32) (_ bv28 32)) ?x44397)))
 (let ((?x38085 (ite (bvsgt (_ bv1 32) ?x3854) (_ bv1 32) (ite (bvsgt ?x3854 ?x3431) ?x3431 ?x3854))))
 (let ((?x41931 (ite (bvsgt (_ bv1 32) ?x38085) (_ bv1 32) (ite (bvsgt ?x38085 ?x3431) ?x3431 ?x38085))))
 (let ((?x51045 (ite (= (_ bv2 32) ?x5229) (ite $x73229 (_ bv31 32) (_ bv31 32)) (ite (= (_ bv1 32) ?x5229) (ite $x73229 (_ bv0 32) (_ bv0 32)) (_ bv0 32)))))
 (let ((?x2751 (ite (= (_ bv4 32) ?x5229) (ite $x73229 (_ bv91 32) (_ bv90 32)) (ite (= (_ bv3 32) ?x5229) (ite $x73229 (_ bv60 32) (_ bv59 32)) ?x51045))))
 (let ((?x4473 (ite (= (_ bv6 32) ?x5229) (ite $x73229 (_ bv152 32) (_ bv151 32)) (ite (= (_ bv5 32) ?x5229) (ite $x73229 (_ bv121 32) (_ bv120 32)) ?x2751))))
 (let ((?x3339 (ite (= (_ bv8 32) ?x5229) (ite $x73229 (_ bv213 32) (_ bv212 32)) (ite (= (_ bv7 32) ?x5229) (ite $x73229 (_ bv182 32) (_ bv181 32)) ?x4473))))
 (let ((?x49181 (ite (= (_ bv10 32) ?x5229) (ite $x73229 (_ bv274 32) (_ bv273 32)) (ite (= (_ bv9 32) ?x5229) (ite $x73229 (_ bv244 32) (_ bv243 32)) ?x3339))))
 (let ((?x4159 (ite (= (_ bv12 32) ?x5229) (ite $x73229 (_ bv335 32) (_ bv334 32)) (ite (= (_ bv11 32) ?x5229) (ite $x73229 (_ bv305 32) (_ bv304 32)) ?x49181))))
 (let ((?x1895 (bvadd (bvmul (_ bv365 32) (bvsub ?x5240 (_ bv1 32))) (bvsdiv (bvsub ?x5240 (_ bv1 32)) (_ bv4 32)))))
 (let ((?x4181 (bvadd (bvsub ?x1895 (bvsdiv (bvsub ?x5240 (_ bv1 32)) (_ bv100 32))) (bvsdiv (bvsub ?x5240 (_ bv1 32)) (_ bv400 32)))))
 (let ((?x4899 (bvadd (bvadd (bvsub (bvadd (bvadd ?x4181 ?x4159) (bvsub ?x41931 (_ bv1 32))) (_ bv730179 32)) (_ bv0 32)) (_ bv730179 32))))
 (let ((?x25842 (bvsmod ?x4899 (_ bv146097 32))))
 (let ((?x21136 (bvsdiv ?x25842 (_ bv36524 32))))
 (let ((?x10003 (ite (bvsle (_ bv4 32) ?x21136) (_ bv3 32) ?x21136)))
 (let ((?x42188 (bvsub ?x25842 (bvmul ?x10003 (_ bv36524 32)))))
 (let ((?x2919 (bvsmod ?x42188 (_ bv1461 32))))
 (let ((?x4798 (bvsdiv ?x2919 (_ bv365 32))))
 (let ((?x65449 (ite (bvsle (_ bv4 32) ?x4798) (_ bv3 32) ?x4798)))
 (let ((?x49196 (bvadd (bvadd (bvmul (bvsdiv ?x4899 (_ bv146097 32)) (_ bv400 32)) (bvmul ?x10003 (_ bv100 32))) (bvmul (bvsdiv ?x42188 (_ bv1461 32)) (_ bv4 32)))))
 (let ((?x5000 (bvadd (bvadd ?x49196 ?x65449) (_ bv1 32))))
 (let (($x73972 (or (and (= (bvsmod ?x5000 (_ bv4 32)) (_ bv0 32)) (and (distinct (bvsmod ?x5000 (_ bv100 32)) (_ bv0 32)) true)) (= (bvsmod ?x5000 (_ bv400 32)) (_ bv0 32)))))
 (let ((?x9908 (bvsub ?x2919 (bvmul ?x65449 (_ bv365 32)))))
 (let ((?x25933 (ite $x73972 (_ bv31 32) (_ bv31 32))))
 (let (($x9941 (bvsge ?x9908 ?x25933)))
 (let ((?x2887 (ite $x9941 (bvadd (bvsub ?x9908 ?x25933) (_ bv1 32)) (bvadd (bvsub ?x9908 (ite $x73972 (_ bv0 32) (_ bv0 32))) (_ bv1 32)))))
 (let ((?x38033 (ite $x73972 (_ bv60 32) (_ bv59 32))))
 (let (($x75833 (bvsge ?x9908 ?x38033)))
 (let ((?x72790 (ite $x73972 (_ bv91 32) (_ bv90 32))))
 (let (($x1415 (bvsge ?x9908 ?x72790)))
 (let ((?x847 (ite $x1415 (bvadd (bvsub ?x9908 ?x72790) (_ bv1 32)) (ite $x75833 (bvadd (bvsub ?x9908 ?x38033) (_ bv1 32)) ?x2887))))
 (let ((?x42172 (ite $x73972 (_ bv121 32) (_ bv120 32))))
 (let (($x10037 (bvsge ?x9908 ?x42172)))
 (let ((?x1688 (ite $x73972 (_ bv152 32) (_ bv151 32))))
 (let (($x43021 (bvsge ?x9908 ?x1688)))
 (let ((?x705 (ite $x43021 (bvadd (bvsub ?x9908 ?x1688) (_ bv1 32)) (ite $x10037 (bvadd (bvsub ?x9908 ?x42172) (_ bv1 32)) ?x847))))
 (let ((?x10092 (ite $x73972 (_ bv182 32) (_ bv181 32))))
 (let (($x9920 (bvsge ?x9908 ?x10092)))
 (let ((?x74009 (ite $x73972 (_ bv213 32) (_ bv212 32))))
 (let (($x42999 (bvsge ?x9908 ?x74009)))
 (let ((?x7543 (ite $x42999 (bvadd (bvsub ?x9908 ?x74009) (_ bv1 32)) (ite $x9920 (bvadd (bvsub ?x9908 ?x10092) (_ bv1 32)) ?x705))))
 (let ((?x10254 (ite $x73972 (_ bv244 32) (_ bv243 32))))
 (let (($x74851 (bvsge ?x9908 ?x10254)))
 (let ((?x10064 (ite $x73972 (_ bv274 32) (_ bv273 32))))
 (let (($x39181 (bvsge ?x9908 ?x10064)))
 (let ((?x72347 (ite $x39181 (bvadd (bvsub ?x9908 ?x10064) (_ bv1 32)) (ite $x74851 (bvadd (bvsub ?x9908 ?x10254) (_ bv1 32)) ?x7543))))
 (let ((?x4505 (ite $x73972 (_ bv305 32) (_ bv304 32))))
 (let (($x30300 (bvsge ?x9908 ?x4505)))
 (let ((?x75661 (ite $x73972 (_ bv335 32) (_ bv334 32))))
 (let (($x1578 (bvsge ?x9908 ?x75661)))
 (let ((?x9678 (ite $x1578 (bvadd (bvsub ?x9908 ?x75661) (_ bv1 32)) (ite $x30300 (bvadd (bvsub ?x9908 ?x4505) (_ bv1 32)) ?x72347))))
 (let (($x1928 (= (_ bv0 32) (_ bv0 32))))
 (let (($x2627 (and (= (bvsmod (ite $x1928 ?x5240 ?x5000) (_ bv4 32)) (_ bv0 32)) (and (distinct (bvsmod (ite $x1928 ?x5240 ?x5000) (_ bv100 32)) (_ bv0 32)) true))))
 (let (($x1247 (or $x2627 (= (bvsmod (ite $x1928 ?x5240 ?x5000) (_ bv400 32)) (_ bv0 32)))))
 (let ((?x10166 (ite $x43021 (_ bv6 32) (ite $x10037 (_ bv5 32) (ite $x1415 (_ bv4 32) (ite $x75833 (_ bv3 32) (ite $x9941 (_ bv2 32) (_ bv1 32))))))))
 (let ((?x2773 (ite $x30300 (_ bv11 32) (ite $x39181 (_ bv10 32) (ite $x74851 (_ bv9 32) (ite $x42999 (_ bv8 32) (ite $x9920 (_ bv7 32) ?x10166)))))))
 (let ((?x9892 (ite $x1928 ?x5229 (ite $x1578 (_ bv12 32) ?x2773))))
 (let ((?x34475 (ite (= (_ bv2 32) ?x9892) (ite $x1247 (_ bv31 32) (_ bv31 32)) (ite (= (_ bv1 32) ?x9892) (ite $x1247 (_ bv0 32) (_ bv0 32)) (_ bv0 32)))))
 (let ((?x42212 (ite (= (_ bv4 32) ?x9892) (ite $x1247 (_ bv91 32) (_ bv90 32)) (ite (= (_ bv3 32) ?x9892) (ite $x1247 (_ bv60 32) (_ bv59 32)) ?x34475))))
 (let ((?x7199 (ite (= (_ bv6 32) ?x9892) (ite $x1247 (_ bv152 32) (_ bv151 32)) (ite (= (_ bv5 32) ?x9892) (ite $x1247 (_ bv121 32) (_ bv120 32)) ?x42212))))
 (let ((?x9912 (ite (= (_ bv8 32) ?x9892) (ite $x1247 (_ bv213 32) (_ bv212 32)) (ite (= (_ bv7 32) ?x9892) (ite $x1247 (_ bv182 32) (_ bv181 32)) ?x7199))))
 (let ((?x4213 (ite (= (_ bv10 32) ?x9892) (ite $x1247 (_ bv274 32) (_ bv273 32)) (ite (= (_ bv9 32) ?x9892) (ite $x1247 (_ bv244 32) (_ bv243 32)) ?x9912))))
 (let ((?x3003 (ite (= (_ bv12 32) ?x9892) (ite $x1247 (_ bv335 32) (_ bv334 32)) (ite (= (_ bv11 32) ?x9892) (ite $x1247 (_ bv305 32) (_ bv304 32)) ?x4213))))
 (let ((?x38088 (bvadd (bvmul (_ bv365 32) (bvsub (ite $x1928 ?x5240 ?x5000) (_ bv1 32))) (bvsdiv (bvsub (ite $x1928 ?x5240 ?x5000) (_ bv1 32)) (_ bv4 32)))))
 (let ((?x3098 (bvadd (bvsub ?x38088 (bvsdiv (bvsub (ite $x1928 ?x5240 ?x5000) (_ bv1 32)) (_ bv100 32))) (bvsdiv (bvsub (ite $x1928 ?x5240 ?x5000) (_ bv1 32)) (_ bv400 32)))))
 (let ((?x5166 (bvsub (bvadd (bvadd ?x3098 ?x3003) (bvsub (ite $x1928 ?x41931 ?x9678) (_ bv1 32))) (_ bv730179 32))))
 (= y_days ?x5166)))))))))))))))))))))))))))))))))))))))))))))))))))))))))))))))))))))))))))))))))))))))))))))))))))))))))))))))))))))))
(assert
 (not (= y_days (_ bv7669 32))))
(check-sat)
